c ren 1 -> 1
c ren 2 -> 2
c ren 3 -> 3
c ren 4 -> 4
c ren 5 -> 5
c ren 6 -> 6
c ren 7 -> 7
c ren 8 -> 8
c ren 9 -> 9
c ren 10 -> 10
c ren 11 -> 11
c ren 12 -> 12
c ren 13 -> 13
c ren 14 -> 14
c ren 15 -> 15
c ren 16 -> 16
c ren 17 -> 17
c ren 18 -> 18
c ren 19 -> 19
c ren 20 -> 20
c ren 21 -> 21
c ren 22 -> 22
c ren 23 -> 23
c ren 24 -> 24
c ren 25 -> 25
c ren 26 -> 26
c ren 27 -> 27
c ren 28 -> 28
c ren 29 -> 29
c ren 30 -> 30
c ren 31 -> 31
c ren 32 -> 32
c ren 33 -> 33
c ren 34 -> 34
c ren 35 -> 35
c ren 36 -> 36
c ren 37 -> 37
c ren 38 -> 38
c ren 39 -> 39
c ren 40 -> 40
c ren 41 -> 41
c ren 42 -> 42
c ren 43 -> 43
c ren 44 -> 44
c ren 45 -> 45
c ren 46 -> 46
c ren 47 -> 47
c ren 48 -> 48
c ren 49 -> 49
c ren 50 -> 50
c ren 51 -> 51
c ren 52 -> 52
c ren 53 -> 53
c ren 54 -> 54
c ren 55 -> 55
c ren 56 -> 56
c ren 57 -> 57
c ren 58 -> 58
c ren 59 -> 59
c ren 60 -> 60
c ren 61 -> 61
c ren 62 -> 62
c ren 63 -> 63
c ren 64 -> 64
c ren 65 -> 65
c ren 66 -> 66
c ren 67 -> 67
c ren 68 -> 68
c ren 69 -> 69
c ren 70 -> 70
c ren 71 -> 71
c ren 72 -> 72
c ren 73 -> 73
c ren 74 -> 74
c ren 77 -> 75
c ren 84 -> 76
c ren 86 -> 77
c ren 87 -> 78
c ren 89 -> 79
c ren 90 -> 80
c ren 93 -> 81
c ren 94 -> 82
c ren 116 -> 83
c ren 123 -> 84
c ren 126 -> 85
c ren 127 -> 86
c ren 128 -> 87
c ren 166 -> 88
c ren 167 -> 89
c ren 181 -> 90
c ren 182 -> 91
c ren 198 -> 92
c ren 209 -> 93
c ren 210 -> 94
c ren 224 -> 95
c ren 249 -> 96
c ren 256 -> 97
c ren 263 -> 98
c ren 269 -> 99
c ren 270 -> 100
c ren 276 -> 101
c ren 277 -> 102
c ren 286 -> 103
c ren 287 -> 104
c ren 293 -> 105
c ren 294 -> 106
c ren 301 -> 107
c ren 302 -> 108
c ren 308 -> 109
c ren 309 -> 110
c ren 317 -> 111
c ren 318 -> 112
p cnf 112 500
a 18 19 20 21 22 23 24 25 26 27 28 29 30 31 32 33 34 35 36 37 38 39 40 41 42 43 44 45 46 47 48 49 50 51 52 53 54 55 56 57 58 59 60 61 62 63 64 65 66 67 68 69 70 71 72 0
d 1 18 19 20 21 22 23 24 25 26 27 28 29 30 31 32 33 34 35 36 37 38 39 40 41 42 43 44 45 46 47 48 49 50 51 52 53 0
d 2 18 19 20 21 22 23 24 25 26 27 28 29 30 31 32 33 34 35 36 37 38 39 40 41 42 43 44 45 46 47 48 49 50 51 52 53 0
d 3 18 19 20 21 22 23 24 25 26 27 28 29 30 31 32 33 34 35 36 37 38 39 40 41 42 43 44 45 46 47 48 49 50 51 52 53 0
d 4 18 19 20 21 22 23 24 25 26 27 28 29 30 31 32 33 34 35 36 37 38 39 40 41 42 43 44 45 46 47 48 49 50 51 52 53 0
d 5 18 19 20 21 22 23 24 25 26 27 28 29 30 31 32 33 34 35 36 37 38 39 40 41 42 43 44 45 46 47 48 49 50 51 52 53 0
d 6 18 19 20 21 22 23 24 25 26 27 28 29 30 31 32 33 34 35 36 37 38 39 40 41 42 43 44 45 46 47 48 49 50 51 52 53 0
d 7 18 19 20 21 22 23 24 25 26 27 28 29 30 31 32 33 34 35 36 37 38 39 40 41 42 43 44 45 46 47 48 49 50 51 52 53 0
d 8 18 19 20 21 22 23 24 25 26 27 28 29 30 31 32 33 34 35 36 37 38 39 40 41 42 43 44 45 46 47 48 49 50 51 52 53 0
d 9 18 19 20 21 22 23 24 25 26 27 28 29 30 31 32 33 34 35 36 37 38 39 40 41 42 43 44 45 46 47 48 49 50 51 52 53 0
d 10 18 19 20 21 22 23 24 25 26 27 28 29 30 31 32 33 34 35 36 37 38 39 40 41 42 43 44 45 46 47 48 49 50 51 52 53 0
d 11 18 19 20 21 22 23 24 25 26 27 28 29 30 31 32 33 34 35 36 37 38 39 40 41 42 43 44 45 46 47 48 49 50 51 52 53 0
d 12 18 19 20 21 22 23 24 25 26 27 28 29 30 31 32 33 34 35 36 37 38 39 40 41 42 43 44 45 46 47 48 49 50 51 52 53 0
d 13 18 19 20 21 22 23 24 25 26 27 28 29 30 31 32 33 34 35 36 37 38 39 40 41 42 43 44 45 46 47 48 49 50 51 52 53 0
d 14 18 19 20 21 22 23 24 25 26 27 28 29 30 31 32 33 34 35 36 37 38 39 40 41 42 43 44 45 46 47 48 49 50 51 52 53 0
d 15 18 19 20 21 22 23 24 25 26 27 28 29 30 31 32 33 34 35 36 37 38 39 40 41 42 43 44 45 46 47 48 49 50 51 52 53 0
d 16 18 19 20 21 22 23 24 25 26 27 28 29 30 31 32 33 34 35 36 37 38 39 40 41 42 43 44 45 46 47 48 49 50 51 52 53 0
d 17 18 19 20 21 22 23 24 25 26 27 28 29 30 31 32 33 34 35 36 37 38 39 40 41 42 43 44 45 46 47 48 49 50 51 52 53 0
d 73 35 36 37 38 39 40 41 42 43 44 45 46 47 48 49 50 51 52 53 0
d 74 54 55 56 57 58 59 60 61 62 63 64 65 66 67 68 69 70 71 72 0
e 75 76 77 78 79 80 81 82 83 84 85 86 87 88 89 90 91 92 93 94 95 96 97 98 99 100 101 102 103 104 105 106 107 108 109 110 111 112 0
-53 -72 75 0
53 72 75 0
51 -52 70 -71 76 0
-51 -52 -70 -71 76 0
-51 52 -70 71 76 0
51 52 70 71 76 0
-54 -77 0
35 -77 0
-35 54 77 0
54 -78 0
-35 -78 0
35 -54 78 0
-78 -83 0
38 39 40 41 42 57 58 59 60 61 77 78 79 80 81 82 83 0
-55 -79 0
36 -79 0
-36 55 79 0
55 -80 0
-36 -80 0
36 -55 80 0
-80 -83 0
38 39 40 41 -42 57 58 59 60 -61 77 78 79 80 81 82 83 0
38 39 40 -41 42 57 58 59 -60 61 77 78 79 80 81 82 83 0
-56 -81 0
37 -81 0
-37 56 81 0
56 -82 0
-37 -82 0
37 -56 82 0
-82 -83 0
38 39 40 -41 -42 57 58 59 -60 -61 77 78 79 80 81 82 83 0
38 39 -40 41 -42 57 58 -59 60 -61 77 78 79 80 81 82 83 0
38 39 -40 -41 -42 57 58 -59 -60 -61 77 78 79 80 81 82 83 0
-38 -39 40 41 42 -57 -58 59 60 61 77 78 79 80 81 82 83 0
38 39 -40 -41 42 57 58 -59 -60 61 77 78 79 80 81 82 83 0
38 -39 40 41 42 57 -58 59 60 61 77 78 79 80 81 82 83 0
-38 -39 40 -41 42 -57 -58 59 -60 61 77 78 79 80 81 82 83 0
-38 -39 40 41 -42 -57 -58 59 60 -61 77 78 79 80 81 82 83 0
38 -39 40 41 -42 57 -58 59 60 -61 77 78 79 80 81 82 83 0
-38 -39 -40 41 42 -57 -58 -59 60 61 77 78 79 80 81 82 83 0
-38 -39 40 -41 -42 -57 -58 59 -60 -61 77 78 79 80 81 82 83 0
38 -39 40 -41 42 57 -58 59 -60 61 77 78 79 80 81 82 83 0
-38 -39 -40 -41 42 -57 -58 -59 -60 61 77 78 79 80 81 82 83 0
38 -39 -40 41 42 57 -58 -59 60 61 77 78 79 80 81 82 83 0
-79 -83 0
38 -39 -40 -41 42 57 -58 -59 -60 61 77 78 79 80 81 82 83 0
-38 39 -40 -41 -42 -57 58 -59 -60 -61 77 78 79 80 81 82 83 0
38 -39 -40 41 -42 57 -58 -59 60 -61 77 78 79 80 81 82 83 0
38 -39 -40 -41 -42 57 -58 -59 -60 -61 77 78 79 80 81 82 83 0
-38 39 40 41 -42 -57 58 59 60 -61 77 78 79 80 81 82 83 0
-77 -83 0
-38 39 40 -41 -42 -57 58 59 -60 -61 77 78 79 80 81 82 83 0
-38 39 40 -41 42 -57 58 59 -60 61 77 78 79 80 81 82 83 0
-38 39 -40 41 42 -57 58 -59 60 61 77 78 79 80 81 82 83 0
-38 -39 -40 -41 -42 -57 -58 -59 -60 -61 77 78 79 80 81 82 83 0
-38 39 -40 41 -42 -57 58 -59 60 -61 77 78 79 80 81 82 83 0
38 -39 40 -41 -42 57 -58 59 -60 -61 77 78 79 80 81 82 83 0
38 39 -40 41 42 57 58 -59 60 61 77 78 79 80 81 82 83 0
-38 39 40 41 42 -57 58 59 60 61 77 78 79 80 81 82 83 0
-38 39 -40 -41 42 -57 58 -59 -60 61 77 78 79 80 81 82 83 0
-38 -39 -40 41 -42 -57 -58 -59 60 -61 77 78 79 80 81 82 83 0
-81 -83 0
43 -44 62 -63 84 0
-43 -44 -62 -63 84 0
-43 44 -62 63 84 0
43 44 62 63 84 0
-45 -64 85 0
45 64 85 0
-65 -86 0
46 -86 0
65 -87 0
-46 -87 0
47 48 49 50 66 67 68 69 -73 74 -75 -76 -83 -84 -85 86 87 0
47 48 49 50 66 67 68 69 73 -74 -75 -76 -83 -84 -85 86 87 0
47 48 49 -50 66 67 68 -69 -73 74 -75 -76 -83 -84 -85 86 87 0
47 48 -49 50 66 67 -68 69 -73 74 -75 -76 -83 -84 -85 86 87 0
47 48 49 -50 66 67 68 -69 73 -74 -75 -76 -83 -84 -85 86 87 0
47 48 -49 -50 66 67 -68 -69 -73 74 -75 -76 -83 -84 -85 86 87 0
47 48 -49 50 66 67 -68 69 73 -74 -75 -76 -83 -84 -85 86 87 0
-47 48 -49 -50 -66 67 -68 -69 73 -74 -75 -76 -83 -84 -85 86 87 0
-47 -48 49 50 -66 -67 68 69 73 -74 -75 -76 -83 -84 -85 86 87 0
47 48 -49 -50 66 67 -68 -69 73 -74 -75 -76 -83 -84 -85 86 87 0
-47 -48 49 -50 -66 -67 68 -69 -73 74 -75 -76 -83 -84 -85 86 87 0
47 -48 49 50 66 -67 68 69 73 -74 -75 -76 -83 -84 -85 86 87 0
47 -48 49 50 66 -67 68 69 -73 74 -75 -76 -83 -84 -85 86 87 0
-47 -48 -49 50 -66 -67 -68 69 73 -74 -75 -76 -83 -84 -85 86 87 0
47 -48 49 -50 66 -67 68 -69 73 -74 -75 -76 -83 -84 -85 86 87 0
47 -48 49 -50 66 -67 68 -69 -73 74 -75 -76 -83 -84 -85 86 87 0
-47 48 -49 50 -66 67 -68 69 -73 74 -75 -76 -83 -84 -85 86 87 0
-47 48 -49 -50 -66 67 -68 -69 -73 74 -75 -76 -83 -84 -85 86 87 0
47 -48 -49 50 66 -67 -68 69 -73 74 -75 -76 -83 -84 -85 86 87 0
-47 -48 49 50 -66 -67 68 69 -73 74 -75 -76 -83 -84 -85 86 87 0
-47 -48 -49 50 -66 -67 -68 69 -73 74 -75 -76 -83 -84 -85 86 87 0
47 -48 -49 50 66 -67 -68 69 73 -74 -75 -76 -83 -84 -85 86 87 0
-47 -48 -49 -50 -66 -67 -68 -69 -73 74 -75 -76 -83 -84 -85 86 87 0
47 -48 -49 -50 66 -67 -68 -69 73 -74 -75 -76 -83 -84 -85 86 87 0
47 -48 -49 -50 66 -67 -68 -69 -73 74 -75 -76 -83 -84 -85 86 87 0
-47 48 49 50 -66 67 68 69 73 -74 -75 -76 -83 -84 -85 86 87 0
-47 48 49 50 -66 67 68 69 -73 74 -75 -76 -83 -84 -85 86 87 0
-47 -48 -49 -50 -66 -67 -68 -69 73 -74 -75 -76 -83 -84 -85 86 87 0
-47 48 49 -50 -66 67 68 -69 -73 74 -75 -76 -83 -84 -85 86 87 0
-47 48 -49 50 -66 67 -68 69 73 -74 -75 -76 -83 -84 -85 86 87 0
-47 48 49 -50 -66 67 68 -69 73 -74 -75 -76 -83 -84 -85 86 87 0
-47 -48 49 -50 -66 -67 68 -69 73 -74 -75 -76 -83 -84 -85 86 87 0
-30 -31 -32 -35 -48 -49 -50 -67 -68 -69 -73 74 -93 -95 -96 -97 -98 99 100 101 102 103 104 105 106 107 108 109 110 111 112 0
35 72 93 0
-16 17 -35 -52 -72 92 93 0
16 -17 -35 -53 -72 92 93 0
1 2 -3 4 5 88 0
-1 2 3 4 5 88 0
1 2 -3 -4 -88 0
1 -2 3 4 5 88 0
-1 -2 3 -4 -89 0
-1 2 3 -4 -88 0
1 2 3 -4 -89 0
1 -2 3 -4 -5 89 0
1 2 -3 -4 -5 89 0
-1 2 3 -4 -5 89 0
1 -2 -3 4 -88 0
1 -2 3 -4 -88 0
1 2 3 4 -88 0
1 -2 -3 -4 -89 0
-1 2 -3 -4 5 88 0
-1 -2 -3 4 5 88 0
1 2 3 -4 5 88 0
-1 -2 -3 -4 -5 89 0
-1 2 -3 4 -88 0
1 -2 -3 4 -5 89 0
-1 2 -3 -4 -89 0
-1 -2 -3 -4 -88 0
1 2 -3 4 -89 0
1 2 3 4 -5 89 0
1 -2 3 4 -89 0
-1 -2 3 -4 5 88 0
-5 -88 0
1 -2 -3 -4 5 88 0
-1 -2 -3 4 -89 0
5 -89 0
-1 2 3 4 -89 0
-1 2 -3 4 -5 89 0
6 7 8 9 -88 -91 0
-6 -7 8 9 -10 88 89 91 0
6 7 8 -9 -89 -90 0
-6 -7 8 -9 -88 -90 0
6 7 8 -9 -88 -90 0
6 7 -8 -9 10 -89 90 0
-6 -7 -8 -9 -88 -91 0
-6 7 8 9 88 89 -91 0
6 -7 -8 -9 88 89 -91 0
6 7 -8 -9 -88 -91 0
-6 -7 -8 -9 10 -88 90 0
-6 7 -8 -9 88 89 -91 0
6 -7 8 9 -88 -90 0
6 7 -8 -9 10 -88 90 0
-6 7 -8 9 -10 88 89 91 0
-6 -7 -8 9 -10 -88 91 0
-6 7 -8 -9 -10 -88 91 0
6 -7 8 9 88 89 -91 0
6 7 -8 9 -10 -88 91 0
-6 -7 8 9 10 -88 90 0
-6 7 -8 -9 -88 -90 0
6 -7 8 -9 10 -88 90 0
6 -7 -8 -9 -10 -88 91 0
-6 7 8 9 -88 -90 0
-6 7 -8 9 -88 -91 0
-6 7 8 -9 88 89 -90 0
-6 7 8 -9 -88 -91 0
6 -7 -8 9 -88 -91 0
6 7 8 9 10 -89 90 0
-6 -7 8 9 -88 -91 0
-6 7 8 9 -10 -88 91 0
6 -7 -8 -9 -88 -90 0
-6 -7 -8 9 -88 -90 0
6 -7 -8 9 10 -88 90 0
6 -7 8 9 10 88 89 90 0
6 -7 8 9 -10 -88 91 0
-6 7 8 -9 -10 88 89 91 0
-6 7 -8 9 10 -88 90 0
6 -7 8 -9 88 89 -90 0
-10 -90 0
-6 7 8 -9 10 -88 90 0
6 7 8 9 -89 -91 0
10 -91 0
6 7 -8 9 -88 -90 0
6 -7 8 -9 -88 -91 0
11 12 13 14 -15 -90 92 0
-11 -12 13 14 15 90 91 92 0
11 12 13 -14 -15 -91 -92 0
-11 -12 13 -14 -15 -90 -92 0
11 12 13 -14 -15 -90 -92 0
11 12 -13 -14 15 -91 -92 0
-11 -12 -13 -14 -15 -90 92 0
-11 12 13 14 -15 90 91 92 0
11 -12 -13 -14 -15 90 91 92 0
11 12 -13 -14 -15 -90 92 0
-11 -12 -13 -14 15 -90 -92 0
-11 12 -13 -14 -15 90 91 92 0
11 -12 13 14 -15 -90 -92 0
11 12 -13 -14 15 -90 -92 0
-11 12 -13 14 15 90 91 92 0
-11 -12 -13 14 15 -90 92 0
-11 12 -13 -14 15 -90 92 0
11 -12 13 14 -15 90 91 92 0
11 12 -13 14 15 -90 92 0
-11 -12 13 14 15 -90 -92 0
-11 12 -13 -14 -15 -90 -92 0
11 -12 13 -14 15 -90 -92 0
11 -12 -13 -14 15 -90 92 0
-11 12 13 14 -15 -90 -92 0
-11 12 -13 14 -15 -90 92 0
-11 12 13 -14 -15 90 91 -92 0
-11 12 13 -14 -15 -90 92 0
11 -12 -13 14 -15 -90 92 0
11 12 13 14 15 -91 -92 0
-11 -12 13 14 -15 -90 92 0
-11 12 13 14 15 -90 92 0
11 -12 -13 -14 -15 -90 -92 0
-11 -12 -13 14 -15 -90 -92 0
11 -12 -13 14 15 -90 -92 0
11 -12 13 14 15 90 91 -92 0
11 -12 13 14 15 -90 92 0
-11 12 13 -14 15 90 91 92 0
-11 12 -13 14 15 -90 -92 0
11 -12 13 -14 -15 90 91 -92 0
11 -12 13 -14 -15 -90 92 0
11 12 13 14 -15 -91 92 0
-11 12 -13 -14 15 90 91 -92 0
11 12 13 -14 15 -90 92 0
-11 12 13 -14 15 -90 -92 0
-11 -12 -13 -14 15 90 91 92 0
11 12 -13 14 -15 -90 -92 0
11 -12 13 -14 15 90 91 92 0
-11 12 -13 14 -15 90 91 -92 0
-16 -17 -35 -53 92 -94 0
16 17 -35 -53 92 -94 0
-11 -12 -13 -14 -15 90 91 -92 0
-16 -17 33 -35 51 -52 -53 70 -71 92 95 0
-16 17 -35 -53 -92 -94 0
16 17 33 -35 51 -52 -53 70 -71 92 95 0
16 -17 51 -52 -53 70 -71 -92 94 95 0
16 17 51 -52 -53 70 -71 92 94 95 0
16 -17 -51 -70 71 92 94 95 0
-16 -17 51 -52 -53 70 -71 92 94 95 0
16 -17 33 34 70 71 92 -94 95 0
16 -17 -53 72 -92 93 0
-16 17 33 34 51 70 71 92 95 0
16 17 -53 72 92 93 0
-33 34 35 -70 71 95 0
-16 -17 -53 72 92 93 0
-35 -52 -94 0
51 52 70 71 94 95 0
16 -17 33 34 51 70 71 92 95 0
-16 17 33 -35 51 -52 -53 70 -71 -92 95 0
-16 17 -51 -52 -53 -70 -71 -92 94 95 0
-16 17 33 34 70 71 92 -94 95 0
-16 17 -33 34 -70 71 92 -94 95 0
16 -17 -35 -52 -72 92 93 0
33 34 35 70 71 95 0
16 -17 51 70 71 92 94 95 0
-51 52 -70 71 94 95 0
33 -34 70 -71 -94 95 0
-35 -52 53 -72 93 0
35 94 0
-16 17 51 70 71 92 94 95 0
-16 -17 -35 -52 -72 -92 93 0
16 17 52 -92 94 0
-51 53 -70 71 94 95 0
-16 17 -51 -70 71 92 94 95 0
16 17 -35 -52 -72 -92 93 0
16 -17 -33 34 -70 71 92 -94 95 0
-33 -34 -70 -71 -94 95 0
-18 19 -20 -54 -55 56 -57 -94 96 0
16 17 -51 -52 -53 -70 -71 92 94 95 0
16 -17 -35 -53 -92 -94 0
-33 34 52 -70 71 -94 95 0
18 19 -20 -54 55 56 -57 -94 96 0
-36 37 -38 -54 -55 56 -57 94 96 0
16 -17 -51 -52 -53 -70 -71 -92 94 95 0
-36 -37 38 -54 -55 -56 57 94 96 0
-16 -17 -33 34 -70 71 -92 -94 95 0
-36 37 38 -54 -55 56 57 94 96 0
18 -19 20 -54 55 -56 57 -94 96 0
-36 -37 -38 -54 -55 -56 -57 94 96 0
36 -37 38 -54 55 -56 57 94 96 0
-18 -19 20 -54 -55 -56 57 -94 96 0
16 -17 33 -35 51 -52 -53 70 -71 -92 95 0
-18 -19 -20 -54 -55 -56 -57 -94 96 0
36 37 38 -54 55 56 57 94 96 0
-16 -17 33 34 70 71 -92 -94 95 0
-33 34 53 -70 71 -94 95 0
54 -96 0
18 19 20 -54 55 56 57 -94 96 0
-16 -17 -51 -52 -53 -70 -71 92 94 95 0
-18 -19 -20 -35 -36 -37 -38 -54 -55 -56 -57 96 0
16 17 51 70 71 -92 94 95 0
-16 -17 33 34 51 70 71 -92 95 0
33 34 52 70 71 -94 95 0
33 34 51 53 70 71 95 0
-35 -36 -37 -38 -39 -40 -41 -42 -43 -44 -45 -46 -47 -48 -49 -50 -51 -52 -53 -73 0
-16 17 -53 72 -92 93 0
-16 17 51 -52 -53 70 -71 -92 94 95 0
-18 19 20 -54 -55 56 57 -94 96 0
-16 -17 -51 -70 71 -92 94 95 0
36 37 -38 -54 55 56 -57 94 96 0
16 17 33 34 70 71 -92 -94 95 0
16 17 -33 34 -70 71 -92 -94 95 0
18 -19 -20 -54 55 -56 -57 -94 96 0
51 53 70 71 94 95 0
16 17 -51 -70 71 -92 94 95 0
33 34 53 70 71 -94 95 0
-16 -17 -35 -53 -72 -92 93 0
16 17 33 34 51 70 71 -92 95 0
-16 -17 51 70 71 -92 94 95 0
-11 -12 -13 14 15 90 91 -92 0
36 -37 -38 -54 55 -56 -57 94 96 0
-21 -58 -94 97 0
-11 -12 -13 14 -15 90 91 92 0
-11 -12 13 -14 -15 90 91 92 0
-21 -35 -39 -58 97 0
-11 -12 13 -14 15 90 91 -92 0
-39 -58 94 97 0
-11 -12 13 14 -15 90 91 -92 0
16 -17 52 92 94 0
-11 -12 13 -14 15 -90 92 0
-11 12 13 14 15 90 91 -92 0
39 58 94 97 0
11 -12 -13 14 -15 90 91 -92 0
21 58 -94 97 0
11 -12 -13 14 15 90 91 92 0
11 -12 -13 -14 15 90 91 -92 0
-22 -59 -94 98 0
11 12 -13 -14 15 90 91 92 0
11 12 -13 14 15 90 91 -92 0
-22 -35 -40 -59 98 0
11 12 -13 14 -15 90 91 92 0
-40 -59 94 98 0
11 12 -13 -14 -15 90 91 -92 0
33 34 51 52 70 71 95 0
11 12 13 14 -15 90 91 -92 0
11 12 13 -14 15 90 91 -92 0
40 59 94 98 0
11 12 13 14 15 -90 -92 0
22 59 -94 98 0
11 12 13 -14 -15 90 91 92 0
11 12 13 14 15 90 91 92 0
11 12 -13 -14 -15 -91 92 0
-48 -49 -50 -67 -68 -69 -73 74 -93 94 -95 -96 -97 -98 99 100 101 102 103 104 105 106 107 108 109 110 111 112 0
11 12 -13 14 -15 -91 -92 0
-23 -94 -100 0
23 -94 -99 0
11 12 -13 14 15 -91 92 0
11 -12 -13 -14 15 -91 92 0
-23 -35 -41 -100 0
41 94 -99 0
11 -12 -13 14 15 -91 -92 0
-41 94 -100 0
11 -12 -13 14 -15 -91 92 0
-60 -99 0
-16 17 52 92 94 0
60 -100 0
11 -12 13 -14 -15 -91 92 0
11 -12 13 -14 15 -91 -92 0
-24 -94 -102 0
24 -94 -101 0
11 -12 13 14 -15 -91 -92 0
11 -12 13 14 15 -91 92 0
-24 -35 -42 -102 0
42 94 -101 0
-11 -12 -13 14 15 -91 92 0
-42 94 -102 0
-11 -12 13 14 15 -91 -92 0
-61 -101 0
-16 -17 52 -92 94 0
61 -102 0
-11 -12 13 -14 -15 -91 -92 0
48 -49 50 67 -68 69 -73 74 -93 94 -95 -96 -97 -98 99 100 101 102 103 104 105 106 107 108 109 110 111 112 0
-11 -12 13 -14 15 -91 92 0
-11 -12 -13 -14 15 -91 -92 0
48 49 -50 67 68 -69 -73 74 -93 94 -95 -96 -97 -98 99 100 101 102 103 104 105 106 107 108 109 110 111 112 0
-11 -12 -13 14 -15 -91 -92 0
-11 12 -13 14 15 -91 -92 0
30 31 32 67 68 69 -73 74 -93 -94 -95 -96 -97 -98 99 100 101 102 103 104 105 106 107 108 109 110 111 112 0
-11 12 -13 14 -15 -91 92 0
-11 12 13 -14 -15 -91 92 0
30 31 -32 67 68 -69 -73 74 -93 -94 -95 -96 -97 -98 99 100 101 102 103 104 105 106 107 108 109 110 111 112 0
-11 12 13 -14 15 -91 -92 0
-25 -94 -104 0
25 -94 -103 0
-11 12 13 14 -15 -91 -92 0
-11 12 13 14 15 -91 92 0
-25 -35 -43 -104 0
43 94 -103 0
6 -7 8 -9 -10 88 89 91 0
-43 94 -104 0
6 7 8 -9 -10 -88 91 0
-62 -103 0
52 53 94 0
62 -104 0
-6 7 -8 9 88 89 -90 0
30 -31 32 67 -68 69 -73 74 -93 -94 -95 -96 -97 -98 99 100 101 102 103 104 105 106 107 108 109 110 111 112 0
-6 -7 -8 -9 -10 88 89 91 0
-26 -94 -106 0
26 -94 -105 0
-6 -7 -8 9 10 88 89 90 0
-6 -7 -8 9 88 89 -91 0
-26 -35 -44 -106 0
44 94 -105 0
-6 -7 -8 -9 88 89 -90 0
-44 94 -106 0
-6 -7 8 -9 88 89 -91 0
-63 -105 0
63 -106 0
-6 -7 8 9 88 89 -90 0
30 -31 -32 67 -68 -69 -73 74 -93 -94 -95 -96 -97 -98 99 100 101 102 103 104 105 106 107 108 109 110 111 112 0
6 -7 -8 9 -10 88 89 91 0
-6 -7 8 -9 -10 -88 91 0
-30 31 32 -67 68 69 -73 74 -93 -94 -95 -96 -97 -98 99 100 101 102 103 104 105 106 107 108 109 110 111 112 0
6 -7 -8 -9 10 88 89 90 0
-27 -94 -108 0
27 -94 -107 0
6 -7 -8 9 88 89 -90 0
6 7 -8 -9 -10 88 89 91 0
-27 -35 -45 -108 0
45 94 -107 0
6 7 -8 9 10 88 89 90 0
-45 94 -108 0
6 7 -8 9 88 89 -91 0
-64 -107 0
52 53 72 93 0
64 -108 0
6 7 8 -9 88 89 -91 0
-30 31 -32 -67 68 -69 -73 74 -93 -94 -95 -96 -97 -98 99 100 101 102 103 104 105 106 107 108 109 110 111 112 0
6 7 8 -9 10 88 89 90 0
-28 -94 -110 0
28 -94 -109 0
6 7 8 9 88 89 -90 0
6 7 8 9 -10 88 89 91 0
-28 -35 -46 -110 0
46 94 -109 0
6 7 8 9 10 -88 90 0
-46 94 -110 0
6 7 8 -9 -10 -89 91 0
-65 -109 0
65 -110 0
6 7 -8 9 -89 -90 0
-30 -31 32 -67 -68 69 -73 74 -93 -94 -95 -96 -97 -98 99 100 101 102 103 104 105 106 107 108 109 110 111 112 0
6 7 -8 9 -10 -89 91 0
6 -7 -8 9 10 -89 90 0
-30 -31 -32 -67 -68 -69 -73 74 -93 -94 -95 -96 -97 -98 99 100 101 102 103 104 105 106 107 108 109 110 111 112 0
6 -7 -8 9 -89 -91 0
6 -7 8 -9 -89 -91 0
-48 49 50 -67 68 69 -73 74 -93 94 -95 -96 -97 -98 99 100 101 102 103 104 105 106 107 108 109 110 111 112 0
6 -7 8 -9 10 -89 90 0
-29 -94 -112 0
29 -94 -111 0
6 -7 8 9 -89 -90 0
6 -7 8 9 -10 -89 91 0
-29 -35 -47 -112 0
47 94 -111 0
-6 -7 -8 9 -10 -89 91 0
-47 94 -112 0
-6 -7 8 9 10 -89 90 0
-66 -111 0
66 -112 0
-6 -7 8 -9 -10 -89 91 0
-48 49 -50 -67 68 -69 -73 74 -93 94 -95 -96 -97 -98 99 100 101 102 103 104 105 106 107 108 109 110 111 112 0
-6 -7 -8 -9 -89 -91 0
-6 7 8 9 10 88 89 90 0
-11 -12 13 14 -15 -91 92 0
-6 7 -8 9 10 -89 90 0
48 49 50 67 68 69 -73 74 -93 94 -95 -96 -97 -98 99 100 101 102 103 104 105 106 107 108 109 110 111 112 0
-6 -7 8 9 -89 -91 0
-6 7 8 -9 -89 -91 0
6 -7 -8 -9 -89 -90 0
11 -12 -13 -14 -15 -91 -92 0
-1 -2 3 4 -88 0
-11 12 -13 -14 15 -91 92 0
-6 -7 -8 -9 10 -89 90 0
6 7 -8 -9 -89 -91 0
-6 -7 -8 9 -89 -90 0
-6 7 -8 -9 -10 -89 91 0
-6 -7 8 -9 -89 -90 0
-48 -49 50 -67 -68 69 -73 74 -93 94 -95 -96 -97 -98 99 100 101 102 103 104 105 106 107 108 109 110 111 112 0
6 7 -8 -9 88 89 -90 0
48 -49 -50 67 -68 -69 -73 74 -93 94 -95 -96 -97 -98 99 100 101 102 103 104 105 106 107 108 109 110 111 112 0
-6 7 -8 -9 -89 -90 0
-16 17 -35 -53 -72 92 93 0
16 17 -35 -53 -72 -92 93 0
-11 12 -13 -14 -15 -91 -92 0
-11 -12 -13 -14 -15 -91 92 0
-1 -2 3 4 -5 89 0
-6 7 8 9 -89 -90 0
-6 -7 8 -9 10 88 89 90 0
-6 7 8 9 -10 -89 91 0
-6 7 8 -9 10 -89 90 0
-6 7 -8 -9 10 88 89 90 0
-6 7 -8 9 -89 -91 0
11 12 13 -14 15 -91 92 0
6 -7 -8 -9 -10 -89 91 0
35 36 37 38 39 40 41 42 43 44 45 46 47 48 49 50 51 52 53 73 0
